(set-info :source |printed by MathSAT|)
(declare-fun call__DRAGON_.flby4 () Int)
(declare-fun param_e04 () Bool)
(declare-fun param_e07 () Bool)
(declare-fun call__DRAGON_.flby6 () Int)
(declare-fun call__DRAGON_.ite () Bool)
(declare-fun call__DRAGON_.ite48 () Int)
(declare-fun call__DRAGON_.ite27 () Int)
(declare-fun call__DRAGON_.ite45 () Int)
(declare-fun call__DRAGON_.ite61 () Int)
(declare-fun call__DRAGON_.flby2 () Int)
(declare-fun call__DRAGON_.ite55 () Int)
(declare-fun call_First.First () Int)
(declare-fun call__DRAGON_.ite29 () Int)
(declare-fun call__DRAGON_.ite20 () Int)
(declare-fun call__DRAGON_.ite50 () Int)
(declare-fun call__DRAGON_.erreur () Bool)
(declare-fun call__DRAGON_.ite30 () Int)
(declare-fun call__DRAGON_.ite34 () Int)
(declare-fun call__DRAGON_.ite19 () Int)
(declare-fun call__DRAGON_.ite4 () Int)
(declare-fun call__DRAGON_.exclusive () Int)
(declare-fun call__DRAGON_.g04 () Bool)
(declare-fun call__DRAGON_.g06 () Bool)
(declare-fun call__DRAGON_.ite12 () Int)
(declare-fun call_Sofar.Sofar () Bool)
(declare-fun param_e06 () Bool)
(declare-fun call__DRAGON_.ite49 () Int)
(declare-fun call__DRAGON_.ite23 () Int)
(declare-fun call__DRAGON_.ite14 () Int)
(declare-fun call__DRAGON_.ite24 () Int)
(declare-fun call__DRAGON_.ite32 () Int)
(declare-fun exclusive () Int)
(declare-fun call__DRAGON_.ite22 () Int)
(declare-fun call__DRAGON_.ite59 () Int)
(declare-fun call__DRAGON_.mem_init () Int)
(declare-fun call__DRAGON_.dirty () Int)
(declare-fun call__DRAGON_.shared () Int)
(declare-fun call__DRAGON_.ite44 () Int)
(declare-fun call__DRAGON_.ite15 () Int)
(declare-fun call__DRAGON_.ite60 () Int)
(declare-fun param_e11 () Bool)
(declare-fun call__DRAGON_.ite5 () Int)
(declare-fun call__DRAGON_.ite28 () Int)
(declare-fun call__DRAGON_.ite36 () Int)
(declare-fun call__DRAGON_.ite41 () Int)
(declare-fun call__DRAGON_.g05 () Bool)
(declare-fun dirty () Int)
(declare-fun call__DRAGON_.ite10 () Int)
(declare-fun param_e09 () Bool)
(declare-fun shared_dirty () Int)
(declare-fun call__DRAGON_.ite52 () Int)
(declare-fun call__DRAGON_.ite21 () Int)
(declare-fun call__DRAGON_.ite47 () Int)
(declare-fun erreur () Bool)
(declare-fun call__DRAGON_.flby3 () Int)
(declare-fun call_Sofar.flby () Bool)
(declare-fun call__DRAGON_.ite8 () Int)
(declare-fun call__DRAGON_.ite33 () Int)
(declare-fun call_First.flby () Int)
(declare-fun call__DRAGON_.invalid () Int)
(declare-fun call__DRAGON_.ite7 () Int)
(declare-fun param_e02 () Bool)
(declare-fun call__DRAGON_.ite57 () Int)
(declare-fun param_e01 () Bool)
(declare-fun call__DRAGON_.ite3 () Int)
(declare-fun param_e12 () Bool)
(declare-fun call__DRAGON_.ite35 () Int)
(declare-fun call__DRAGON_.ite31 () Int)
(declare-fun call__DRAGON_.ite51 () Int)
(declare-fun call__DRAGON_.flby () Int)
(declare-fun _OK_ () Bool)
(declare-fun call__DRAGON_.ite2 () Int)
(declare-fun call__DRAGON_.ite17 () Int)
(declare-fun param_init_invalid () Int)
(declare-fun call__DRAGON_.ite9 () Int)
(declare-fun call__DRAGON_.g08 () Bool)
(declare-fun call__DRAGON_.ite42 () Int)
(declare-fun call__DRAGON_.ite26 () Int)
(declare-fun call__DRAGON_.ite56 () Int)
(declare-fun call_excludes12.excludes () Bool)
(declare-fun shared () Int)
(declare-fun call__DRAGON_.flby5 () Int)
(declare-fun call__DRAGON_.ite53 () Int)
(declare-fun param_e08 () Bool)
(declare-fun call__DRAGON_.ite40 () Int)
(declare-fun call__DRAGON_.ite54 () Int)
(declare-fun call__DRAGON_.ite37 () Int)
(declare-fun call__DRAGON_.shared_dirty () Int)
(declare-fun call__DRAGON_.ite43 () Int)
(declare-fun param_e05 () Bool)
(declare-fun call__DRAGON_.ite25 () Int)
(declare-fun env () Bool)
(declare-fun invalid () Int)
(declare-fun call__DRAGON_.ite11 () Int)
(declare-fun call__DRAGON_.ite58 () Int)
(declare-fun call__DRAGON_.ite18 () Int)
(declare-fun call__DRAGON_.g02 () Bool)
(declare-fun call__DRAGON_.ite39 () Int)
(declare-fun call__DRAGON_.ite6 () Int)
(declare-fun call__DRAGON_.ite13 () Int)
(declare-fun call__DRAGON_.ite46 () Int)
(declare-fun call__DRAGON_.ite16 () Int)
(declare-fun param_e10 () Bool)
(declare-fun param_e03 () Bool)
(declare-fun call__DRAGON_.ite38 () Int)
(define-fun .def_1733 () Bool (= call_First.flby call_First.First))
(define-fun .def_1731 () Bool (= call_Sofar.flby call_Sofar.Sofar))
(define-fun .def_1540 () Bool (not param_e02))
(define-fun .def_1521 () Bool (not param_e01))
(define-fun .def_1629 () Bool (and .def_1521 .def_1540))
(define-fun .def_1581 () Bool (not param_e03))
(define-fun .def_1630 () Bool (and .def_1581 .def_1629))
(define-fun .def_1597 () Bool (not param_e04))
(define-fun .def_1631 () Bool (and .def_1597 .def_1630))
(define-fun .def_1390 () Bool (not param_e05))
(define-fun .def_1632 () Bool (and .def_1390 .def_1631))
(define-fun .def_1372 () Bool (not param_e06))
(define-fun .def_1633 () Bool (and .def_1372 .def_1632))
(define-fun .def_1407 () Bool (not param_e07))
(define-fun .def_1634 () Bool (and .def_1407 .def_1633))
(define-fun .def_1426 () Bool (not param_e08))
(define-fun .def_1635 () Bool (and .def_1426 .def_1634))
(define-fun .def_1265 () Bool (not param_e09))
(define-fun .def_1636 () Bool (and .def_1265 .def_1635))
(define-fun .def_1271 () Bool (not param_e10))
(define-fun .def_1637 () Bool (and .def_1271 .def_1636))
(define-fun .def_1278 () Bool (not param_e11))
(define-fun .def_1638 () Bool (and .def_1278 .def_1637))
(define-fun .def_1285 () Bool (not param_e12))
(define-fun .def_1716 () Bool (and .def_1285 .def_1638))
(define-fun .def_1705 () Bool (and param_e01 .def_1540))
(define-fun .def_1706 () Bool (and .def_1581 .def_1705))
(define-fun .def_1707 () Bool (and .def_1597 .def_1706))
(define-fun .def_1708 () Bool (and .def_1390 .def_1707))
(define-fun .def_1709 () Bool (and .def_1372 .def_1708))
(define-fun .def_1710 () Bool (and .def_1407 .def_1709))
(define-fun .def_1711 () Bool (and .def_1426 .def_1710))
(define-fun .def_1712 () Bool (and .def_1265 .def_1711))
(define-fun .def_1713 () Bool (and .def_1271 .def_1712))
(define-fun .def_1714 () Bool (and .def_1278 .def_1713))
(define-fun .def_1715 () Bool (and .def_1285 .def_1714))
(define-fun .def_1717 () Bool (or .def_1715 .def_1716))
(define-fun .def_1694 () Bool (and .def_1521 param_e02))
(define-fun .def_1695 () Bool (and .def_1581 .def_1694))
(define-fun .def_1696 () Bool (and .def_1597 .def_1695))
(define-fun .def_1697 () Bool (and .def_1390 .def_1696))
(define-fun .def_1698 () Bool (and .def_1372 .def_1697))
(define-fun .def_1699 () Bool (and .def_1407 .def_1698))
(define-fun .def_1700 () Bool (and .def_1426 .def_1699))
(define-fun .def_1701 () Bool (and .def_1265 .def_1700))
(define-fun .def_1702 () Bool (and .def_1271 .def_1701))
(define-fun .def_1703 () Bool (and .def_1278 .def_1702))
(define-fun .def_1704 () Bool (and .def_1285 .def_1703))
(define-fun .def_1718 () Bool (or .def_1704 .def_1717))
(define-fun .def_1684 () Bool (and param_e03 .def_1629))
(define-fun .def_1685 () Bool (and .def_1597 .def_1684))
(define-fun .def_1686 () Bool (and .def_1390 .def_1685))
(define-fun .def_1687 () Bool (and .def_1372 .def_1686))
(define-fun .def_1688 () Bool (and .def_1407 .def_1687))
(define-fun .def_1689 () Bool (and .def_1426 .def_1688))
(define-fun .def_1690 () Bool (and .def_1265 .def_1689))
(define-fun .def_1691 () Bool (and .def_1271 .def_1690))
(define-fun .def_1692 () Bool (and .def_1278 .def_1691))
(define-fun .def_1693 () Bool (and .def_1285 .def_1692))
(define-fun .def_1719 () Bool (or .def_1693 .def_1718))
(define-fun .def_1675 () Bool (and param_e04 .def_1630))
(define-fun .def_1676 () Bool (and .def_1390 .def_1675))
(define-fun .def_1677 () Bool (and .def_1372 .def_1676))
(define-fun .def_1678 () Bool (and .def_1407 .def_1677))
(define-fun .def_1679 () Bool (and .def_1426 .def_1678))
(define-fun .def_1680 () Bool (and .def_1265 .def_1679))
(define-fun .def_1681 () Bool (and .def_1271 .def_1680))
(define-fun .def_1682 () Bool (and .def_1278 .def_1681))
(define-fun .def_1683 () Bool (and .def_1285 .def_1682))
(define-fun .def_1720 () Bool (or .def_1683 .def_1719))
(define-fun .def_1667 () Bool (and param_e05 .def_1631))
(define-fun .def_1668 () Bool (and .def_1372 .def_1667))
(define-fun .def_1669 () Bool (and .def_1407 .def_1668))
(define-fun .def_1670 () Bool (and .def_1426 .def_1669))
(define-fun .def_1671 () Bool (and .def_1265 .def_1670))
(define-fun .def_1672 () Bool (and .def_1271 .def_1671))
(define-fun .def_1673 () Bool (and .def_1278 .def_1672))
(define-fun .def_1674 () Bool (and .def_1285 .def_1673))
(define-fun .def_1721 () Bool (or .def_1674 .def_1720))
(define-fun .def_1660 () Bool (and param_e06 .def_1632))
(define-fun .def_1661 () Bool (and .def_1407 .def_1660))
(define-fun .def_1662 () Bool (and .def_1426 .def_1661))
(define-fun .def_1663 () Bool (and .def_1265 .def_1662))
(define-fun .def_1664 () Bool (and .def_1271 .def_1663))
(define-fun .def_1665 () Bool (and .def_1278 .def_1664))
(define-fun .def_1666 () Bool (and .def_1285 .def_1665))
(define-fun .def_1722 () Bool (or .def_1666 .def_1721))
(define-fun .def_1654 () Bool (and param_e07 .def_1633))
(define-fun .def_1655 () Bool (and .def_1426 .def_1654))
(define-fun .def_1656 () Bool (and .def_1265 .def_1655))
(define-fun .def_1657 () Bool (and .def_1271 .def_1656))
(define-fun .def_1658 () Bool (and .def_1278 .def_1657))
(define-fun .def_1659 () Bool (and .def_1285 .def_1658))
(define-fun .def_1723 () Bool (or .def_1659 .def_1722))
(define-fun .def_1649 () Bool (and param_e08 .def_1634))
(define-fun .def_1650 () Bool (and .def_1265 .def_1649))
(define-fun .def_1651 () Bool (and .def_1271 .def_1650))
(define-fun .def_1652 () Bool (and .def_1278 .def_1651))
(define-fun .def_1653 () Bool (and .def_1285 .def_1652))
(define-fun .def_1724 () Bool (or .def_1653 .def_1723))
(define-fun .def_1645 () Bool (and param_e09 .def_1635))
(define-fun .def_1646 () Bool (and .def_1271 .def_1645))
(define-fun .def_1647 () Bool (and .def_1278 .def_1646))
(define-fun .def_1648 () Bool (and .def_1285 .def_1647))
(define-fun .def_1725 () Bool (or .def_1648 .def_1724))
(define-fun .def_1642 () Bool (and param_e10 .def_1636))
(define-fun .def_1643 () Bool (and .def_1278 .def_1642))
(define-fun .def_1644 () Bool (and .def_1285 .def_1643))
(define-fun .def_1726 () Bool (or .def_1644 .def_1725))
(define-fun .def_1640 () Bool (and param_e11 .def_1637))
(define-fun .def_1641 () Bool (and .def_1285 .def_1640))
(define-fun .def_1727 () Bool (or .def_1641 .def_1726))
(define-fun .def_1639 () Bool (and param_e12 .def_1638))
(define-fun .def_1728 () Bool (or .def_1639 .def_1727))
(define-fun .def_1729 () Bool (= call_excludes12.excludes .def_1728))
(define-fun .def_1627 () Bool (= call__DRAGON_.mem_init call__DRAGON_.flby))
(define-fun .def_1625 () Bool (= call__DRAGON_.erreur call__DRAGON_.ite))
(define-fun .def_1623 () Bool (= call__DRAGON_.flby6 call__DRAGON_.invalid))
(define-fun .def_1621 () Bool (= call__DRAGON_.flby5 call__DRAGON_.dirty))
(define-fun .def_1619 () Bool (= call__DRAGON_.flby4 call__DRAGON_.shared_dirty))
(define-fun .def_1617 () Bool (= call__DRAGON_.flby3 call__DRAGON_.shared))
(define-fun .def_1614 () Bool (= call__DRAGON_.flby2 call__DRAGON_.exclusive))
(define-fun .def_1609 () Bool (<= 2 call__DRAGON_.exclusive))
(define-fun .def_1611 () Bool (not .def_1609))
(define-fun .def_1612 () Bool (or call__DRAGON_.ite .def_1611))
(define-fun .def_1608 () Bool (not call__DRAGON_.ite))
(define-fun .def_1610 () Bool (or .def_1608 .def_1609))
(define-fun .def_1613 () Bool (and .def_1610 .def_1612))
(define-fun .def_1615 () Bool (and .def_1613 .def_1614))
(define-fun .def_1603 () Bool (= call__DRAGON_.ite29 call__DRAGON_.ite30))
(define-fun .def_1604 () Bool (or param_e04 .def_1603))
(define-fun .def_1600 () Bool (= call__DRAGON_.ite23 call__DRAGON_.ite30))
(define-fun .def_1601 () Bool (or .def_1597 .def_1600))
(define-fun .def_1596 () Bool (= call__DRAGON_.ite43 call__DRAGON_.ite34))
(define-fun .def_1598 () Bool (or .def_1596 .def_1597))
(define-fun .def_1592 () Bool (= call__DRAGON_.ite42 call__DRAGON_.ite43))
(define-fun .def_1594 () Bool (or .def_1592 param_e04))
(define-fun .def_1599 () Bool (and .def_1594 .def_1598))
(define-fun .def_1602 () Bool (and .def_1599 .def_1601))
(define-fun .def_1605 () Bool (and .def_1602 .def_1604))
(define-fun .def_1588 () Bool (= call__DRAGON_.ite8 call__DRAGON_.ite9))
(define-fun .def_1589 () Bool (or param_e03 .def_1588))
(define-fun .def_1585 () Bool (= call__DRAGON_.ite9 call__DRAGON_.ite4))
(define-fun .def_1586 () Bool (or .def_1581 .def_1585))
(define-fun .def_1580 () Bool (= call__DRAGON_.ite44 call__DRAGON_.ite33))
(define-fun .def_1582 () Bool (or .def_1580 .def_1581))
(define-fun .def_1576 () Bool (= call__DRAGON_.ite44 call__DRAGON_.ite43))
(define-fun .def_1578 () Bool (or .def_1576 param_e03))
(define-fun .def_1583 () Bool (and .def_1578 .def_1582))
(define-fun .def_1587 () Bool (and .def_1583 .def_1586))
(define-fun .def_1590 () Bool (and .def_1587 .def_1589))
(define-fun .def_1571 () Bool (= call__DRAGON_.ite31 call__DRAGON_.ite30))
(define-fun .def_1572 () Bool (or param_e02 .def_1571))
(define-fun .def_1567 () Bool (= call__DRAGON_.ite22 call__DRAGON_.ite31))
(define-fun .def_1568 () Bool (or .def_1540 .def_1567))
(define-fun .def_1562 () Bool (= call__DRAGON_.ite20 call__DRAGON_.ite21))
(define-fun .def_1563 () Bool (or param_e02 .def_1562))
(define-fun .def_1559 () Bool (= call__DRAGON_.ite12 call__DRAGON_.ite21))
(define-fun .def_1560 () Bool (or .def_1540 .def_1559))
(define-fun .def_1554 () Bool (= call__DRAGON_.ite10 call__DRAGON_.ite9))
(define-fun .def_1555 () Bool (or param_e02 .def_1554))
(define-fun .def_1550 () Bool (= call__DRAGON_.ite3 call__DRAGON_.ite10))
(define-fun .def_1551 () Bool (or .def_1540 .def_1550))
(define-fun .def_1547 () Bool (= call__DRAGON_.ite59 call__DRAGON_.ite60))
(define-fun .def_1548 () Bool (or param_e02 .def_1547))
(define-fun .def_1544 () Bool (= call__DRAGON_.ite60 call__DRAGON_.ite47))
(define-fun .def_1545 () Bool (or .def_1540 .def_1544))
(define-fun .def_1539 () Bool (= call__DRAGON_.ite32 call__DRAGON_.ite45))
(define-fun .def_1541 () Bool (or .def_1539 .def_1540))
(define-fun .def_1536 () Bool (= call__DRAGON_.ite45 call__DRAGON_.ite44))
(define-fun .def_1538 () Bool (or .def_1536 param_e02))
(define-fun .def_1542 () Bool (and .def_1538 .def_1541))
(define-fun .def_1546 () Bool (and .def_1542 .def_1545))
(define-fun .def_1549 () Bool (and .def_1546 .def_1548))
(define-fun .def_1552 () Bool (and .def_1549 .def_1551))
(define-fun .def_1556 () Bool (and .def_1552 .def_1555))
(define-fun .def_1561 () Bool (and .def_1556 .def_1560))
(define-fun .def_1564 () Bool (and .def_1561 .def_1563))
(define-fun .def_1569 () Bool (and .def_1564 .def_1568))
(define-fun .def_1573 () Bool (and .def_1569 .def_1572))
(define-fun .def_1530 () Bool (= call__DRAGON_.ite11 call__DRAGON_.ite10))
(define-fun .def_1531 () Bool (or param_e01 .def_1530))
(define-fun .def_1526 () Bool (= call__DRAGON_.ite2 call__DRAGON_.ite11))
(define-fun .def_1527 () Bool (or .def_1521 .def_1526))
(define-fun .def_1520 () Bool (= call__DRAGON_.ite61 call__DRAGON_.ite46))
(define-fun .def_1522 () Bool (or .def_1520 .def_1521))
(define-fun .def_1516 () Bool (= call__DRAGON_.ite61 call__DRAGON_.ite60))
(define-fun .def_1518 () Bool (or .def_1516 param_e01))
(define-fun .def_1523 () Bool (and .def_1518 .def_1522))
(define-fun .def_1528 () Bool (and .def_1523 .def_1527))
(define-fun .def_1532 () Bool (and .def_1528 .def_1531))
(define-fun .def_1510 () Bool (= call__DRAGON_.ite55 call__DRAGON_.ite52))
(define-fun .def_1511 () Bool (or .def_1278 .def_1510))
(define-fun .def_1507 () Bool (= call__DRAGON_.ite54 call__DRAGON_.ite55))
(define-fun .def_1508 () Bool (or param_e11 .def_1507))
(define-fun .def_1512 () Bool (and .def_1508 .def_1511))
(define-fun .def_1503 () Bool (= call__DRAGON_.ite56 call__DRAGON_.ite51))
(define-fun .def_1504 () Bool (or .def_1271 .def_1503))
(define-fun .def_1500 () Bool (= call__DRAGON_.ite56 call__DRAGON_.ite55))
(define-fun .def_1501 () Bool (or param_e10 .def_1500))
(define-fun .def_1505 () Bool (and .def_1501 .def_1504))
(define-fun .def_1495 () Bool (= call__DRAGON_.ite57 call__DRAGON_.ite50))
(define-fun .def_1496 () Bool (or .def_1265 .def_1495))
(define-fun .def_1492 () Bool (= call__DRAGON_.ite57 call__DRAGON_.ite56))
(define-fun .def_1493 () Bool (or param_e09 .def_1492))
(define-fun .def_1497 () Bool (and .def_1493 .def_1496))
(define-fun .def_1489 () Bool (= env call_Sofar.Sofar))
(define-fun .def_1486 () Bool (= erreur call__DRAGON_.erreur))
(define-fun .def_1482 () Bool (= invalid call__DRAGON_.invalid))
(define-fun .def_1478 () Bool (= dirty call__DRAGON_.dirty))
(define-fun .def_1475 () Bool (= shared_dirty call__DRAGON_.shared_dirty))
(define-fun .def_1471 () Bool (= shared call__DRAGON_.shared))
(define-fun .def_1467 () Bool (= exclusive call__DRAGON_.exclusive))
(define-fun .def_1461 () Bool (<= dirty call_First.First))
(define-fun .def_1458 () Bool (not env))
(define-fun .def_1462 () Bool (or .def_1458 .def_1461))
(define-fun .def_1463 () Bool (= _OK_ .def_1462))
(define-fun .def_1452 () Bool (= call__DRAGON_.ite39 call__DRAGON_.ite40))
(define-fun .def_1453 () Bool (or param_e08 .def_1452))
(define-fun .def_1449 () Bool (= call__DRAGON_.ite37 call__DRAGON_.ite40))
(define-fun .def_1450 () Bool (or .def_1426 .def_1449))
(define-fun .def_1446 () Bool (= call__DRAGON_.ite27 call__DRAGON_.ite28))
(define-fun .def_1447 () Bool (or param_e08 .def_1446))
(define-fun .def_1443 () Bool (= call__DRAGON_.ite25 call__DRAGON_.ite28))
(define-fun .def_1444 () Bool (or .def_1426 .def_1443))
(define-fun .def_1440 () Bool (= call__DRAGON_.ite17 call__DRAGON_.ite18))
(define-fun .def_1441 () Bool (or param_e08 .def_1440))
(define-fun .def_1437 () Bool (= call__DRAGON_.ite18 call__DRAGON_.ite15))
(define-fun .def_1438 () Bool (or .def_1426 .def_1437))
(define-fun .def_1433 () Bool (= call__DRAGON_.ite7 call__DRAGON_.ite8))
(define-fun .def_1434 () Bool (or param_e08 .def_1433))
(define-fun .def_1430 () Bool (= call__DRAGON_.ite5 call__DRAGON_.ite8))
(define-fun .def_1431 () Bool (or .def_1426 .def_1430))
(define-fun .def_1425 () Bool (= call__DRAGON_.ite58 call__DRAGON_.ite49))
(define-fun .def_1427 () Bool (or .def_1425 .def_1426))
(define-fun .def_1421 () Bool (= call__DRAGON_.ite58 call__DRAGON_.ite57))
(define-fun .def_1423 () Bool (or .def_1421 param_e08))
(define-fun .def_1428 () Bool (and .def_1423 .def_1427))
(define-fun .def_1432 () Bool (and .def_1428 .def_1431))
(define-fun .def_1435 () Bool (and .def_1432 .def_1434))
(define-fun .def_1439 () Bool (and .def_1435 .def_1438))
(define-fun .def_1442 () Bool (and .def_1439 .def_1441))
(define-fun .def_1445 () Bool (and .def_1442 .def_1444))
(define-fun .def_1448 () Bool (and .def_1445 .def_1447))
(define-fun .def_1451 () Bool (and .def_1448 .def_1450))
(define-fun .def_1454 () Bool (and .def_1451 .def_1453))
(define-fun .def_1416 () Bool (= call__DRAGON_.ite59 call__DRAGON_.ite58))
(define-fun .def_1417 () Bool (or param_e07 .def_1416))
(define-fun .def_1412 () Bool (= call__DRAGON_.ite48 call__DRAGON_.ite59))
(define-fun .def_1413 () Bool (or .def_1407 .def_1412))
(define-fun .def_1406 () Bool (= call__DRAGON_.ite41 call__DRAGON_.ite36))
(define-fun .def_1408 () Bool (or .def_1406 .def_1407))
(define-fun .def_1402 () Bool (= call__DRAGON_.ite41 call__DRAGON_.ite40))
(define-fun .def_1404 () Bool (or .def_1402 param_e07))
(define-fun .def_1409 () Bool (and .def_1404 .def_1408))
(define-fun .def_1414 () Bool (and .def_1409 .def_1413))
(define-fun .def_1418 () Bool (and .def_1414 .def_1417))
(define-fun .def_1397 () Bool (= call__DRAGON_.ite19 call__DRAGON_.ite20))
(define-fun .def_1398 () Bool (or param_e05 .def_1397))
(define-fun .def_1394 () Bool (= call__DRAGON_.ite13 call__DRAGON_.ite20))
(define-fun .def_1395 () Bool (or .def_1390 .def_1394))
(define-fun .def_1389 () Bool (= call__DRAGON_.ite42 call__DRAGON_.ite35))
(define-fun .def_1391 () Bool (or .def_1389 .def_1390))
(define-fun .def_1385 () Bool (= call__DRAGON_.ite41 call__DRAGON_.ite42))
(define-fun .def_1387 () Bool (or .def_1385 param_e05))
(define-fun .def_1392 () Bool (and .def_1387 .def_1391))
(define-fun .def_1396 () Bool (and .def_1392 .def_1395))
(define-fun .def_1399 () Bool (and .def_1396 .def_1398))
(define-fun .def_1380 () Bool (= call__DRAGON_.ite29 call__DRAGON_.ite28))
(define-fun .def_1381 () Bool (or param_e06 .def_1380))
(define-fun .def_1376 () Bool (= call__DRAGON_.ite24 call__DRAGON_.ite29))
(define-fun .def_1377 () Bool (or .def_1372 .def_1376))
(define-fun .def_1371 () Bool (= call__DRAGON_.ite19 call__DRAGON_.ite14))
(define-fun .def_1373 () Bool (or .def_1371 .def_1372))
(define-fun .def_1367 () Bool (= call__DRAGON_.ite19 call__DRAGON_.ite18))
(define-fun .def_1369 () Bool (or .def_1367 param_e06))
(define-fun .def_1374 () Bool (and .def_1369 .def_1373))
(define-fun .def_1378 () Bool (and .def_1374 .def_1377))
(define-fun .def_1382 () Bool (and .def_1378 .def_1381))
(define-fun .def_1400 () Bool (and .def_1382 .def_1399))
(define-fun .def_1419 () Bool (and .def_1400 .def_1418))
(define-fun .def_1455 () Bool (and .def_1419 .def_1454))
(define-fun .def_1464 () Bool (and .def_1455 .def_1463))
(define-fun .def_1468 () Bool (and .def_1464 .def_1467))
(define-fun .def_1472 () Bool (and .def_1468 .def_1471))
(define-fun .def_1476 () Bool (and .def_1472 .def_1475))
(define-fun .def_1479 () Bool (and .def_1476 .def_1478))
(define-fun .def_1483 () Bool (and .def_1479 .def_1482))
(define-fun .def_1487 () Bool (and .def_1483 .def_1486))
(define-fun .def_1490 () Bool (and .def_1487 .def_1489))
(define-fun .def_1498 () Bool (and .def_1490 .def_1497))
(define-fun .def_1506 () Bool (and .def_1498 .def_1505))
(define-fun .def_1513 () Bool (and .def_1506 .def_1512))
(define-fun .def_1533 () Bool (and .def_1513 .def_1532))
(define-fun .def_1574 () Bool (and .def_1533 .def_1573))
(define-fun .def_1591 () Bool (and .def_1574 .def_1590))
(define-fun .def_1606 () Bool (and .def_1591 .def_1605))
(define-fun .def_1616 () Bool (and .def_1606 .def_1615))
(define-fun .def_1618 () Bool (and .def_1616 .def_1617))
(define-fun .def_1620 () Bool (and .def_1618 .def_1619))
(define-fun .def_1622 () Bool (and .def_1620 .def_1621))
(define-fun .def_1624 () Bool (and .def_1622 .def_1623))
(define-fun .def_1626 () Bool (and .def_1624 .def_1625))
(define-fun .def_1628 () Bool (and .def_1626 .def_1627))
(define-fun .def_1730 () Bool (and .def_1628 .def_1729))
(define-fun .def_1732 () Bool (and .def_1730 .def_1731))
(define-fun .def_1734 () Bool (and .def_1732 .def_1733))
(define-fun .def_1363 () Bool (= param_init_invalid call_First.flby))
(define-fun .def_1355 () Bool (<= param_init_invalid 0))
(define-fun .def_1356 () Bool (not .def_1355))
(define-fun .def_1358 () Bool (and .def_1356 call_excludes12.excludes))
(define-fun .def_1360 () Bool (= .def_1358 call_Sofar.flby))
(define-fun .def_1353 () Bool (= call__DRAGON_.flby4 0))
(define-fun .def_1350 () Bool (= call__DRAGON_.flby3 0))
(define-fun .def_1347 () Bool (= call__DRAGON_.flby2 0))
(define-fun .def_1344 () Bool (= param_init_invalid call__DRAGON_.flby))
(define-fun .def_1338 () Bool (= call__DRAGON_.ite37 0))
(define-fun .def_1331 () Bool (not call__DRAGON_.g08))
(define-fun .def_1339 () Bool (or .def_1331 .def_1338))
(define-fun .def_1334 () Bool (= call__DRAGON_.ite5 0))
(define-fun .def_1335 () Bool (or .def_1331 .def_1334))
(define-fun .def_1329 () Bool (= call__DRAGON_.ite25 1))
(define-fun .def_1332 () Bool (or .def_1329 .def_1331))
(define-fun .def_1336 () Bool (and .def_1332 .def_1335))
(define-fun .def_1340 () Bool (and .def_1336 .def_1339))
(define-fun .def_1325 () Bool (= call__DRAGON_.ite24 1))
(define-fun .def_1323 () Bool (not call__DRAGON_.g06))
(define-fun .def_1326 () Bool (or .def_1323 .def_1325))
(define-fun .def_1319 () Bool (= call__DRAGON_.ite13 0))
(define-fun .def_1317 () Bool (not call__DRAGON_.g05))
(define-fun .def_1320 () Bool (or .def_1317 .def_1319))
(define-fun .def_1313 () Bool (= call__DRAGON_.ite23 0))
(define-fun .def_1311 () Bool (not call__DRAGON_.g04))
(define-fun .def_1314 () Bool (or .def_1311 .def_1313))
(define-fun .def_1306 () Bool (= call__DRAGON_.ite3 0))
(define-fun .def_1303 () Bool (not call__DRAGON_.g02))
(define-fun .def_1307 () Bool (or .def_1303 .def_1306))
(define-fun .def_1301 () Bool (= call__DRAGON_.ite32 0))
(define-fun .def_1304 () Bool (or .def_1301 .def_1303))
(define-fun .def_1308 () Bool (and .def_1304 .def_1307))
(define-fun .def_1298 () Bool (= call__DRAGON_.flby6 call__DRAGON_.mem_init))
(define-fun .def_1294 () Bool (= call__DRAGON_.flby5 0))
(define-fun .def_1289 () Bool (= call__DRAGON_.ite53 call__DRAGON_.ite54))
(define-fun .def_1290 () Bool (or .def_1285 .def_1289))
(define-fun .def_1283 () Bool (= call__DRAGON_.ite6 call__DRAGON_.ite7))
(define-fun .def_1286 () Bool (or .def_1283 .def_1285))
(define-fun .def_1291 () Bool (and .def_1286 .def_1290))
(define-fun .def_1276 () Bool (= call__DRAGON_.ite26 call__DRAGON_.ite27))
(define-fun .def_1279 () Bool (or .def_1276 .def_1278))
(define-fun .def_1269 () Bool (= call__DRAGON_.ite16 call__DRAGON_.ite17))
(define-fun .def_1272 () Bool (or .def_1269 .def_1271))
(define-fun .def_1263 () Bool (= call__DRAGON_.ite38 call__DRAGON_.ite39))
(define-fun .def_1266 () Bool (or .def_1263 .def_1265))
(define-fun .def_1273 () Bool (and .def_1266 .def_1272))
(define-fun .def_1280 () Bool (and .def_1273 .def_1279))
(define-fun .def_1292 () Bool (and .def_1280 .def_1291))
(define-fun .def_1295 () Bool (and .def_1292 .def_1294))
(define-fun .def_1299 () Bool (and .def_1295 .def_1298))
(define-fun .def_1309 () Bool (and .def_1299 .def_1308))
(define-fun .def_1315 () Bool (and .def_1309 .def_1314))
(define-fun .def_1321 () Bool (and .def_1315 .def_1320))
(define-fun .def_1327 () Bool (and .def_1321 .def_1326))
(define-fun .def_1341 () Bool (and .def_1327 .def_1340))
(define-fun .def_1345 () Bool (and .def_1341 .def_1344))
(define-fun .def_1348 () Bool (and .def_1345 .def_1347))
(define-fun .def_1351 () Bool (and .def_1348 .def_1350))
(define-fun .def_1354 () Bool (and .def_1351 .def_1353))
(define-fun .def_1361 () Bool (and .def_1354 .def_1360))
(define-fun .def_1364 () Bool (and .def_1361 .def_1363))
(define-fun .def_1735 () Bool (and .def_1364 .def_1734))
(assert .def_1735)
